 vasp.5.4.4.18Apr17-6-g9f103f2a35 (build Apr 27 2017 19:51:02) complex

 executed on       CrayXC-Intel16 date 2019.01.11  11:53:00

 INCAR:
 POTCAR:    PAW_PBE Mn_pv 02Aug2007
 POTCAR:    PAW_PBE Ir 06Sep2000
 POTCAR:    PAW_PBE Mn_pv 02Aug2007
   VRHFIN =Mn: 3p4s3d

   TITEL  = PAW_PBE Mn_pv 02Aug2007
   POMASS =   54.938; ZVAL   =   13.000    mass and valenz
   ENMAX  =  269.864; ENMIN  =  202.398 eV

 POTCAR:    PAW_PBE Ir 06Sep2000
   VRHFIN =Ir: s1d8

   TITEL  = PAW_PBE Ir 06Sep2000
   POMASS =  192.220; ZVAL   =    9.000    mass and valenz
   ENMAX  =  210.864; ENMIN  =  158.148 eV

 Optimization of the real space projectors (new method)

 maximal supplied QI-value         = 16.25
 optimisation between [QCUT,QGAM] = [  9.43, 19.01] = [ 24.88,101.24] Ry
 Optimized for a Real-space Cutoff    1.52 Angstroem

   l    n(q)    QCUT    max X(q) W(low)/X(q) W(high)/X(q)  e(spline)
   1      8     9.426     3.658    0.24E-03    0.26E-03    0.12E-06
   1      8     9.426     5.612    0.47E-03    0.48E-03    0.24E-06
   2      8     9.426    55.373    0.30E-03    0.28E-03    0.20E-06
   2      8     9.426    50.863    0.31E-03    0.28E-03    0.21E-06
   0      9     9.426    79.536    0.11E-03    0.58E-04    0.81E-07
   0      9     9.426    38.668    0.10E-03    0.54E-04    0.75E-07
 Optimization of the real space projectors (new method)

 maximal supplied QI-value         = 14.36
 optimisation between [QCUT,QGAM] = [  9.48, 19.10] = [ 25.16,102.17] Ry
 Optimized for a Real-space Cutoff    1.57 Angstroem

   l    n(q)    QCUT    max X(q) W(low)/X(q) W(high)/X(q)  e(spline)
   2      8     9.479   134.116    0.18E-03    0.75E-03    0.26E-06
   2      8     9.479   130.192    0.18E-03    0.75E-03    0.27E-06
   0      9     9.479    60.310    0.39E-03    0.24E-03    0.63E-07
   0      9     9.479    39.218    0.36E-03    0.22E-03    0.59E-07
   1      8     9.479    18.439    0.20E-03    0.15E-03    0.16E-06
   1      8     9.479    12.760    0.16E-03    0.11E-03    0.13E-06
  PAW_PBE Mn_pv 02Aug2007               :
  PAW_PBE Ir 06Sep2000                  :

 POSCAR: IrMn3 111 cell
  positions in cartesian coordinates
 exchange correlation table for  LEXCH =        8
   RHO(1)=    0.500       N(1)  =     2000
   RHO(2)=  100.500       N(2)  =     4000

 ion  position               nearest neighbor table
   1  0.044  0.833  0.333-  96 2.63   2 2.63   3 2.63   5 2.63  73 2.63  73 2.63   3 2.63   6 2.63
                            74 2.63   2 2.63  71 2.63  70 2.63
   2  0.044  0.333  0.833-  71 2.63   4 2.63  74 2.63  72 2.63   1 2.63  73 2.63   6 2.63   3 2.63
                             3 2.63  73 2.63   1 2.63  96 2.63
   3  0.044  0.833  0.833-  70 2.63   4 2.63  74 2.63  72 2.63   1 2.63   5 2.63   2 2.63  73 2.63
                            73 2.63   1 2.63   2 2.63  96 2.63
   4  0.085  0.500  1.000-   3 2.63   2 2.63  73 2.63   5 2.63   6 2.63   8 2.63  74 2.63  74 2.63
                             6 2.63   9 2.63  75 2.63   5 2.63
   5  0.085  0.000  0.500-   7 2.63  73 2.63  75 2.63   4 2.63  74 2.63   9 2.63   3 2.63   6 2.63
                             1 2.63   6 2.63  74 2.63   4 2.63
   6  0.085  0.500  0.500-   7 2.63  73 2.63  75 2.63   4 2.63   2 2.63   8 2.63   5 2.63  74 2.63
                            74 2.63   4 2.63   1 2.63   5 2.63
   7  0.127  0.167  0.667-   6 2.63   5 2.63  74 2.63   8 2.63   9 2.63  11 2.63  75 2.63  75 2.63
                             9 2.63  12 2.63  76 2.63   8 2.63
   8  0.127  0.667  0.167-  10 2.63  74 2.63  76 2.63   7 2.63  75 2.63   6 2.63  12 2.63   9 2.63
                             4 2.63   9 2.63  75 2.63   7 2.63
   9  0.127  0.167  0.167-  10 2.63  74 2.63  76 2.63   7 2.63   5 2.63  11 2.63   8 2.63  75 2.63
                            75 2.63   7 2.63   4 2.63   8 2.63
  10  0.169  0.833  0.333-   9 2.63   8 2.63  75 2.63  11 2.63  12 2.63  14 2.63  76 2.63  76 2.63
                            12 2.63  15 2.63  77 2.63  11 2.63
  11  0.169  0.333  0.833-  13 2.63  75 2.63  77 2.63  10 2.63  76 2.63  15 2.63   9 2.63  12 2.63
                             7 2.63  12 2.63  76 2.63  10 2.63
  12  0.169  0.833  0.833-  13 2.63  75 2.63  77 2.63  10 2.63  14 2.63   8 2.63  11 2.63  76 2.63
                            76 2.63  10 2.63   7 2.63  11 2.63
  13  0.210  0.500  1.000-  12 2.63  11 2.63  76 2.63  14 2.63  15 2.63  17 2.63  77 2.63  77 2.63
                            15 2.63  18 2.63  78 2.63  14 2.63
  14  0.210  0.000  0.500-  16 2.63  76 2.63  78 2.63  13 2.63  77 2.63  12 2.63  18 2.63  15 2.63
                            10 2.63  15 2.63  77 2.63  13 2.63
  15  0.210  0.500  0.500-  16 2.63  76 2.63  78 2.63  13 2.63  11 2.63  17 2.63  14 2.63  77 2.63
                            77 2.63  13 2.63  10 2.63  14 2.63
  16  0.252  0.167  0.667-  15 2.63  14 2.63  77 2.63  17 2.63  18 2.63  20 2.63  78 2.63  78 2.63
                            18 2.63  21 2.63  79 2.63  17 2.63
  17  0.252  0.667  0.167-  19 2.63  77 2.63  79 2.63  16 2.63  78 2.63  15 2.63  21 2.63  18 2.63
                            13 2.63  18 2.63  78 2.63  16 2.63
  18  0.252  0.167  0.167-  19 2.63  77 2.63  79 2.63  16 2.63  14 2.63  20 2.63  17 2.63  78 2.63
                            78 2.63  16 2.63  13 2.63  17 2.63
  19  0.294  0.833  0.333-  18 2.63  17 2.63  78 2.63  20 2.63  21 2.63  23 2.63  79 2.63  79 2.63
                            21 2.63  24 2.63  80 2.63  20 2.63
  20  0.294  0.333  0.833-  22 2.63  78 2.63  80 2.63  19 2.63  79 2.63  24 2.63  18 2.63  21 2.63
                            16 2.63  21 2.63  79 2.63  19 2.63
  21  0.294  0.833  0.833-  22 2.63  78 2.63  80 2.63  19 2.63  23 2.63  17 2.63  20 2.63  79 2.63
                            79 2.63  19 2.63  16 2.63  20 2.63
  22  0.335  0.500  1.000-  21 2.63  20 2.63  79 2.63  23 2.63  24 2.63  26 2.63  80 2.63  80 2.63
                            24 2.63  27 2.63  81 2.63  23 2.63
  23  0.335  0.000  0.500-  25 2.63  79 2.63  81 2.63  22 2.63  80 2.63  21 2.63  27 2.63  24 2.63
                            19 2.63  24 2.63  80 2.63  22 2.63
  24  0.335  0.500  0.500-  25 2.63  79 2.63  81 2.63  22 2.63  20 2.63  26 2.63  23 2.63  80 2.63
                            80 2.63  22 2.63  19 2.63  23 2.63
  25  0.377  0.167  0.667-  24 2.63  23 2.63  80 2.63  26 2.63  27 2.63  29 2.63  81 2.63  81 2.63
                            27 2.63  30 2.63  82 2.63  26 2.63
  26  0.377  0.667  0.167-  28 2.63  80 2.63  82 2.63  25 2.63  81 2.63  24 2.63  30 2.63  27 2.63
                            22 2.63  27 2.63  81 2.63  25 2.63
  27  0.377  0.167  0.167-  28 2.63  80 2.63  82 2.63  25 2.63  23 2.63  29 2.63  26 2.63  81 2.63
                            81 2.63  25 2.63  22 2.63  26 2.63
  28  0.419  0.833  0.333-  27 2.63  26 2.63  81 2.63  29 2.63  30 2.63  32 2.63  82 2.63  82 2.63
                            30 2.63  33 2.63  83 2.63  29 2.63
  29  0.419  0.333  0.833-  31 2.63  81 2.63  83 2.63  28 2.63  82 2.63  33 2.63  27 2.63  30 2.63
                            25 2.63  30 2.63  82 2.63  28 2.63
  30  0.419  0.833  0.833-  31 2.63  81 2.63  83 2.63  28 2.63  32 2.63  26 2.63  29 2.63  82 2.63
                            82 2.63  28 2.63  25 2.63  29 2.63
  31  0.460  0.500  1.000-  30 2.63  29 2.63  82 2.63  32 2.63  33 2.63  35 2.63  83 2.63  83 2.63
                            33 2.63  36 2.63  84 2.63  32 2.63
  32  0.460  0.000  0.500-  34 2.63  82 2.63  84 2.63  31 2.63  83 2.63  36 2.63  30 2.63  33 2.63
                            28 2.63  33 2.63  83 2.63  31 2.63
  33  0.460  0.500  0.500-  34 2.63  82 2.63  84 2.63  31 2.63  35 2.63  29 2.63  32 2.63  83 2.63
                            83 2.63  31 2.63  28 2.63  32 2.63
  34  0.502  0.167  0.667-  33 2.63  32 2.63  83 2.63  35 2.63  36 2.63  38 2.63  84 2.63  84 2.63
                            36 2.63  39 2.63  85 2.63  35 2.63
  35  0.502  0.667  0.167-  37 2.63  83 2.63  85 2.63  34 2.63  84 2.63  33 2.63  39 2.63  36 2.63
                            31 2.63  36 2.63  84 2.63  34 2.63
  36  0.502  0.167  0.167-  37 2.63  83 2.63  85 2.63  34 2.63  32 2.63  38 2.63  35 2.63  84 2.63
                            84 2.63  34 2.63  31 2.63  35 2.63
  37  0.544  0.833  0.333-  36 2.63  35 2.63  84 2.63  38 2.63  39 2.63  41 2.63  85 2.63  85 2.63
                            39 2.63  42 2.63  86 2.63  38 2.63
  38  0.544  0.333  0.833-  40 2.63  84 2.63  86 2.63  37 2.63  85 2.63  42 2.63  36 2.63  39 2.63
                            34 2.63  39 2.63  85 2.63  37 2.63
  39  0.544  0.833  0.833-  40 2.63  84 2.63  86 2.63  37 2.63  41 2.63  35 2.63  38 2.63  85 2.63
                            85 2.63  37 2.63  34 2.63  38 2.63
  40  0.585  0.500  1.000-  39 2.63  38 2.63  85 2.63  41 2.63  42 2.63  44 2.63  86 2.63  86 2.63
                            42 2.63  45 2.63  87 2.63  41 2.63
  41  0.585  0.000  0.500-  43 2.63  85 2.63  87 2.63  40 2.63  86 2.63  45 2.63  39 2.63  42 2.63
                            37 2.63  42 2.63  86 2.63  40 2.63
  42  0.585  0.500  0.500-  43 2.63  85 2.63  87 2.63  40 2.63  38 2.63  44 2.63  41 2.63  86 2.63
                            86 2.63  40 2.63  37 2.63  41 2.63
  43  0.627  0.167  0.667-  42 2.63  41 2.63  86 2.63  44 2.63  45 2.63  47 2.63  87 2.63  87 2.63
                            45 2.63  48 2.63  88 2.63  44 2.63
  44  0.627  0.667  0.167-  46 2.63  86 2.63  88 2.63  43 2.63  87 2.63  42 2.63  48 2.63  45 2.63
                            40 2.63  45 2.63  87 2.63  43 2.63
  45  0.627  0.167  0.167-  46 2.63  86 2.63  88 2.63  43 2.63  41 2.63  47 2.63  44 2.63  87 2.63
                            87 2.63  43 2.63  40 2.63  44 2.63
  46  0.669  0.833  0.333-  45 2.63  44 2.63  87 2.63  47 2.63  48 2.63  50 2.63  88 2.63  88 2.63
                            48 2.63  51 2.63  89 2.63  47 2.63
  47  0.669  0.333  0.833-  49 2.63  87 2.63  89 2.63  46 2.63  88 2.63  51 2.63  45 2.63  48 2.63
                            43 2.63  48 2.63  88 2.63  46 2.63
  48  0.669  0.833  0.833-  49 2.63  87 2.63  89 2.63  46 2.63  50 2.63  44 2.63  47 2.63  88 2.63
                            88 2.63  46 2.63  43 2.63  47 2.63
  49  0.710  0.500  1.000-  48 2.63  47 2.63  88 2.63  50 2.63  51 2.63  53 2.63  89 2.63  89 2.63
                            51 2.63  54 2.63  90 2.63  50 2.63
  50  0.710  0.000  0.500-  52 2.63  88 2.63  90 2.63  49 2.63  89 2.63  54 2.63  48 2.63  51 2.63
                            46 2.63  51 2.63  89 2.63  49 2.63
  51  0.710  0.500  0.500-  52 2.63  88 2.63  90 2.63  49 2.63  47 2.63  53 2.63  50 2.63  89 2.63
                            89 2.63  49 2.63  46 2.63  50 2.63
  52  0.752  0.167  0.667-  51 2.63  50 2.63  89 2.63  53 2.63  54 2.63  56 2.63  90 2.63  90 2.63
                            54 2.63  57 2.63  91 2.63  53 2.63
  53  0.752  0.667  0.167-  55 2.63  89 2.63  91 2.63  52 2.63  90 2.63  51 2.63  57 2.63  54 2.63
                            49 2.63  54 2.63  90 2.63  52 2.63
  54  0.752  0.167  0.167-  55 2.63  89 2.63  91 2.63  52 2.63  50 2.63  56 2.63  53 2.63  90 2.63
                            90 2.63  52 2.63  49 2.63  53 2.63
  55  0.794  0.833  0.333-  54 2.63  53 2.63  90 2.63  56 2.63  57 2.63  59 2.63  91 2.63  91 2.63
[...]
   -.381E-01 -.442E-03 -.841E-03   -.879E-08 0.109E-07 -.808E-08   0.654E-02 0.574E-05 0.567E-03   0.377E-01 0.116E-02 -.606E-03
   -.273E-01 -.271E-02 0.144E-02   0.233E-07 -.155E-08 0.122E-07   0.645E-02 0.801E-03 -.227E-03   0.268E-01 -.105E-03 -.140E-02
   -.270E-01 0.301E-02 0.194E-02   -.832E-08 -.827E-08 -.897E-08   0.648E-02 -.714E-03 -.529E-03   0.264E-01 -.148E-02 0.497E-03
   -.269E-01 -.228E-03 -.301E-02   -.958E-08 0.109E-07 -.812E-08   0.644E-02 -.118E-03 0.891E-03   0.265E-01 0.153E-02 0.498E-03
   -.160E-01 -.343E-02 0.108E-02   0.234E-07 -.157E-08 0.122E-07   0.651E-02 0.111E-02 -.473E-03   0.156E-01 -.322E-03 -.893E-03
   -.170E-01 0.181E-02 0.221E-02   -.830E-08 -.825E-08 -.905E-08   0.653E-02 -.950E-03 -.772E-03   0.165E-01 0.251E-03 0.985E-03
   -.168E-01 0.189E-02 -.444E-02   -.955E-08 0.108E-07 -.813E-08   0.649E-02 -.189E-03 0.113E-02   0.164E-01 -.173E-03 0.108E-02
   -.172E-01 -.469E-02 -.172E-02   0.241E-07 -.157E-08 0.122E-07   0.666E-02 0.109E-02 -.605E-03   0.166E-01 0.959E-03 0.199E-02
   -.168E-01 0.493E-03 0.358E-02   -.753E-08 -.832E-08 -.901E-08   0.665E-02 -.111E-02 -.665E-03   0.162E-01 0.165E-02 -.454E-03
   -.175E-01 0.316E-02 -.157E-02   -.879E-08 0.109E-07 -.811E-08   0.654E-02 -.588E-04 0.132E-02   0.171E-01 -.155E-02 -.181E-02
   -.314E-01 -.247E-02 -.111E-02   0.233E-07 -.153E-08 0.122E-07   0.650E-02 0.847E-03 -.461E-03   0.308E-01 -.307E-03 0.124E-02
   -.310E-01 0.795E-03 0.329E-02   -.833E-08 -.834E-08 -.902E-08   0.650E-02 -.711E-03 -.414E-03   0.305E-01 0.640E-03 -.104E-02
   -.308E-01 0.187E-02 -.168E-02   -.958E-08 0.109E-07 -.815E-08   0.646E-02 -.116E-03 0.873E-03   0.304E-01 -.626E-03 -.721E-03
   -.394E-01 -.949E-03 0.161E-02   0.234E-07 -.150E-08 0.123E-07   0.630E-02 0.377E-03 -.840E-04   0.391E-01 -.504E-03 -.176E-02
   -.400E-01 0.148E-02 0.420E-03   -.829E-08 -.819E-08 -.899E-08   0.617E-02 -.305E-03 -.321E-03   0.398E-01 -.810E-03 0.950E-03
   -.395E-01 0.111E-03 -.290E-02   -.954E-08 0.108E-07 -.817E-08   0.624E-02 -.716E-04 0.288E-03   0.393E-01 0.725E-03 0.169E-02
[...]
   0.841E-02 0.345E-03 0.765E-03   -.276E-08 -.104E-08 0.488E-08   0.421E-02 0.186E-04 0.700E-04   -.829E-02 -.339E-03 -.756E-03
   -.638E-02 -.180E-03 -.476E-03   -.238E-08 -.106E-08 0.497E-08   0.424E-02 -.124E-04 -.292E-04   0.652E-02 0.180E-03 0.468E-03
   -.281E-01 -.286E-03 -.735E-03   -.274E-08 -.103E-08 0.491E-08   0.407E-02 -.306E-04 -.615E-04   0.282E-01 0.285E-03 0.726E-03
   -.327E-01 0.129E-03 0.970E-04   -.278E-08 -.106E-08 0.499E-08   0.413E-02 -.200E-04 -.256E-04   0.328E-01 -.126E-03 -.972E-04
   -.254E-01 0.431E-03 -.655E-03   -.238E-08 -.107E-08 0.490E-08   0.423E-02 -.164E-04 -.591E-04   0.255E-01 -.426E-03 0.649E-03
   -.174E-01 -.430E-04 -.219E-03   -.277E-08 -.105E-08 0.493E-08   0.423E-02 -.424E-04 -.573E-04   0.175E-01 0.426E-04 0.227E-03
   -.107E-01 -.150E-03 0.806E-03   -.277E-08 -.103E-08 0.493E-08   0.423E-02 -.694E-04 -.423E-04   0.109E-01 0.153E-03 -.776E-03
   -.124E-01 0.718E-03 -.119E-03   -.238E-08 -.103E-08 0.495E-08   0.412E-02 -.458E-04 -.755E-04   0.125E-01 -.692E-03 0.118E-03
   -.217E-01 -.177E-03 -.316E-03   -.275E-08 -.106E-08 0.496E-08   0.406E-02 -.638E-04 -.107E-03   0.218E-01 0.185E-03 0.329E-03
   -.263E-01 -.395E-03 0.595E-03   -.277E-08 -.109E-08 0.488E-08   0.409E-02 -.427E-04 -.504E-04   0.263E-01 0.386E-03 -.581E-03
   -.190E-01 0.104E-02 0.179E-03   -.240E-08 -.106E-08 0.490E-08   0.424E-02 0.716E-05 -.731E-05   0.192E-01 -.103E-02 -.197E-03
   -.134E-01 0.148E-03 -.891E-03   0.185E-08 -.103E-08 0.593E-08   0.431E-02 -.990E-04 -.103E-04   0.135E-01 -.141E-03 0.889E-03
   -.178E-01 -.251E-02 -.276E-03   -.874E-07 -.105E-08 0.311E-07   0.417E-02 -.978E-04 -.121E-03   0.180E-01 0.247E-02 0.265E-03
   -.234E-01 -.194E-03 -.379E-03   -.142E-07 -.106E-08 -.558E-07   0.386E-02 -.113E-05 -.745E-05   0.234E-01 0.188E-03 0.366E-03
   -.318E-01 0.802E-04 0.222E-03   -.101E-10 0.102E-13 0.126E-12   0.567E+00 0.103E-03 -.122E-05   -.124E-03 -.133E-03 -.227E-03

 POSITION                                       TOTAL-FORCE (eV/Angst)
      2.24486      5.25380      1.51664         0.000558     -0.000107     -0.000247
      2.24486      3.94035      3.79161         0.000365     -0.000324      0.000123
      2.24486      6.56725      3.79161         0.000170      0.000248      0.000403
      4.38971      5.25380      4.54993         0.000772      0.000288     -0.000203
      4.38971      1.31345      2.27496         0.000977     -0.000245     -0.000167
      4.38971      3.94035      2.27496         0.000731      0.000196      0.000143
      6.53457      2.62690      3.03328         0.000257      0.000425     -0.000407
      6.53457      3.94035      0.75832         0.000287     -0.000563     -0.000269
      6.53457      1.31345      0.75832         0.000293      0.000090      0.000598
      8.67943      5.25380      1.51664         0.000422      0.001090     -0.000263
      8.67943      3.94035      3.79161         0.000400     -0.000835     -0.000810
      8.67943      6.56725      3.79161         0.000355     -0.000314      0.001172
     10.82428      5.25380      4.54993         0.000534      0.001955     -0.000236
     10.82428      1.31345      2.27496         0.000495     -0.001183     -0.001537
     10.82428      3.94035      2.27496         0.000460     -0.000745      0.001861
     12.96914      2.62690      3.03328         0.000447      0.002668     -0.000231
     12.96914      3.94035      0.75832         0.000367     -0.001590     -0.002159
     12.96914      1.31345      0.75832         0.000397     -0.001014      0.002430
     15.11399      5.25380      1.51664         0.000577      0.002678     -0.000191
     15.11399      3.94035      3.79161         0.000516     -0.001572     -0.002262
     15.11399      6.56725      3.79161         0.000498     -0.001099      0.002398
     17.25885      5.25380      4.54993         0.000507      0.002000     -0.000291
     17.25885      1.31345      2.27496         0.000491     -0.001297     -0.001678
     17.25885      3.94035      2.27496         0.000438     -0.000757      0.001883
     19.40371      2.62690      3.03328         0.000496      0.001155     -0.000291
     19.40371      3.94035      0.75832         0.000441     -0.000867     -0.000879
     19.40371      1.31345      0.75832         0.000422     -0.000282      0.001130
     21.54856      5.25380      1.51664         0.000466      0.000439     -0.000230
     21.54856      3.94035      3.79161         0.000400     -0.000470     -0.000333
     21.54856      6.56725      3.79161         0.000350      0.000019      0.000499
     23.69342      5.25380      4.54993         0.000558      0.000086     -0.000232
     23.69342      1.31345      2.27496         0.000499     -0.000300     -0.000024
     23.69342      3.94035      2.27496         0.000462      0.000197      0.000197
     25.83827      2.62690      3.03328         0.000514      0.000004     -0.000288
     25.83828      3.94035      0.75832         0.000551     -0.000223      0.000147
     25.83828      1.31345      0.75832         0.000570      0.000212      0.000135
     27.98313      5.25380      1.51664         0.000234     -0.000092     -0.000272
     27.98313      3.94035      3.79161         0.000287     -0.000169      0.000276
     27.98313      6.56725      3.79161         0.000336      0.000274      0.000064
     30.12799      5.25380      4.54993         0.000305     -0.000462     -0.000263
     30.12799      1.31345      2.27496         0.000338     -0.000008      0.000525
     30.12799      3.94035      2.27496         0.000380      0.000452     -0.000275
     32.27284      2.62690      3.03328         0.000382     -0.001165     -0.000329
     32.27284      3.94035      0.75832         0.000466      0.000387      0.001122
     32.27284      1.31345      0.75832         0.000509      0.000720     -0.000880
     34.41770      5.25380      1.51664         0.000373     -0.002012     -0.000187
     34.41770      3.94035      3.79161         0.000376      0.000819      0.001904
     34.41770      6.56725      3.79161         0.000435      0.001187     -0.001621
     36.56256      5.25380      4.54993         0.000449     -0.002639     -0.000285
     36.56256      1.31345      2.27496         0.000432      0.001114      0.002423
     36.56256      3.94035      2.27496         0.000493      0.001528     -0.002230
     38.70741      2.62690      3.03328         0.000444     -0.002642     -0.000333
     38.70741      3.94035      0.75832         0.000516      0.001039      0.002463
     38.70741      1.31345      0.75832         0.000493      0.001551     -0.002059
     40.85227      5.25380      1.51664         0.000334     -0.001932     -0.000336
     40.85227      3.94035      3.79161         0.000447      0.000723      0.001839
     40.85227      6.56725      3.79161         0.000499      0.001130     -0.001523
     42.99712      5.25380      4.54993         0.000350     -0.001077     -0.000232
     42.99713      1.31345      2.27496         0.000393      0.000366      0.001049
     42.99713      3.94035      2.27496         0.000422      0.000764     -0.000920
[...]
     21.54856      2.62690      1.51664        -0.001351      0.000027      0.000087
     23.69342      2.62690      4.54993        -0.001239      0.000025      0.000079
     25.83828      5.25380      3.03328        -0.001207     -0.000014     -0.000036
     27.98313      2.62690      1.51664        -0.001462     -0.000032     -0.000071
     30.12799      2.62690      4.54993        -0.001408     -0.000017     -0.000026
     32.27284      5.25380      3.03328        -0.001279     -0.000012     -0.000065
     34.41770      2.62690      1.51664        -0.001252     -0.000043     -0.000049
     36.56256      2.62690      4.54993        -0.001213     -0.000067     -0.000013
     38.70741      5.25380      3.03328        -0.001314     -0.000020     -0.000077
     40.85227      2.62690      1.51664        -0.001417     -0.000056     -0.000093
     42.99713      2.62690      4.54993        -0.001415     -0.000053     -0.000036
     45.14198      5.25380      3.03328        -0.001149      0.000017     -0.000026
     47.28684      2.62690      1.51664        -0.001137     -0.000093     -0.000012
     49.43169      2.62690      4.54993        -0.001214     -0.000140     -0.000132
      0.10000      5.25380      3.03328        -0.001748     -0.000008     -0.000020
    total drift:                                0.535523      0.000050     -0.000007

  FREE ENERGIE OF THE ION-ELECTRON SYSTEM (eV)
  free  energy   TOTEN  =      -893.06355545 eV

  energy  without entropy=     -892.66677040  energy(sigma->0) =     -892.86516293

 writing wavefunctions

 Spin-Orbit-Coupling matrix elements

 Ion:    1  E_soc:     -0.0286245
 l=   1
     0.0000000    -0.0036928    -0.0037877
    -0.0036928     0.0000000    -0.0036031
    -0.0037877    -0.0036031     0.0000000
 l=   2
     0.0000000    -0.0003527     0.0000000    -0.0001969    -0.0005009
    -0.0003527     0.0000000    -0.0007738    -0.0001401    -0.0002248
     0.0000000    -0.0007738     0.0000000    -0.0007893     0.0000000
    -0.0001969    -0.0001401    -0.0007893     0.0000000    -0.0002502
    -0.0005009    -0.0002248     0.0000000    -0.0002502     0.0000000
 l=   3
     0.0000000     0.0000000     0.0000000     0.0000000     0.0000000     0.0000000     0.0000000
     0.0000000     0.0000000     0.0000000     0.0000000     0.0000000     0.0000000     0.0000000
     0.0000000     0.0000000     0.0000000     0.0000000     0.0000000     0.0000000     0.0000000
     0.0000000     0.0000000     0.0000000     0.0000000     0.0000000     0.0000000     0.0000000
     0.0000000     0.0000000     0.0000000     0.0000000     0.0000000     0.0000000     0.0000000
     0.0000000     0.0000000     0.0000000     0.0000000     0.0000000     0.0000000     0.0000000
     0.0000000     0.0000000     0.0000000     0.0000000     0.0000000     0.0000000     0.0000000

[...]

 Ion:   96  E_soc:     -0.7848241
 l=   1
     0.0000000    -0.0411019    -0.0402168
    -0.0411019     0.0000000    -0.0402154
    -0.0402168    -0.0402154     0.0000000
 l=   2
     0.0000000    -0.0190135     0.0000000    -0.0182764    -0.0719403
    -0.0190135     0.0000000    -0.0530243    -0.0190126    -0.0176756
     0.0000000    -0.0530243     0.0000000    -0.0549808     0.0000000
    -0.0182764    -0.0190126    -0.0549808     0.0000000    -0.0169544
    -0.0719403    -0.0176756     0.0000000    -0.0169544     0.0000000
 l=   3
     0.0000000     0.0000000     0.0000000     0.0000000     0.0000000     0.0000000     0.0000000
     0.0000000     0.0000000     0.0000000     0.0000000     0.0000000     0.0000000     0.0000000
     0.0000000     0.0000000     0.0000000     0.0000000     0.0000000     0.0000000     0.0000000
     0.0000000     0.0000000     0.0000000     0.0000000     0.0000000     0.0000000     0.0000000
     0.0000000     0.0000000     0.0000000     0.0000000     0.0000000     0.0000000     0.0000000
     0.0000000     0.0000000     0.0000000     0.0000000     0.0000000     0.0000000     0.0000000
     0.0000000     0.0000000     0.0000000     0.0000000     0.0000000     0.0000000     0.0000000

 total charge

[...]

 magnetization (x)

[...]

 magnetization (y)

[...]

 magnetization (z)

# of ion       s       p       d       tot
    1       -0.028  -0.042  -2.605  -2.676
    2        0.012   0.018   1.130   1.160
    3        0.016   0.024   1.475   1.515
    4       -0.028  -0.042  -2.605  -2.675
    5        0.012   0.018   1.129   1.160
    6        0.016   0.024   1.474   1.514
    7       -0.028  -0.042  -2.606  -2.676
    8        0.012   0.018   1.136   1.167
    9        0.016   0.024   1.467   1.507
   10       -0.028  -0.042  -2.606  -2.677
   11        0.012   0.019   1.143   1.174
   12        0.016   0.024   1.461   1.501
   13       -0.028  -0.042  -2.608  -2.678
   14        0.012   0.019   1.162   1.194
   15        0.015   0.024   1.445   1.484
   16       -0.028  -0.042  -2.610  -2.680
   17        0.013   0.020   1.198   1.231
   18        0.015   0.023   1.412   1.450
   19       -0.028  -0.042  -2.612  -2.682
   20        0.013   0.020   1.240   1.273
   21        0.015   0.022   1.372   1.409
   22       -0.028  -0.043  -2.613  -2.683
   23        0.014   0.021   1.274   1.308
   24        0.014   0.022   1.339   1.375
   25       -0.028  -0.043  -2.613  -2.683
   26        0.014   0.021   1.295   1.329
   27        0.014   0.021   1.320   1.355
   28       -0.028  -0.043  -2.613  -2.683
   29        0.014   0.021   1.303   1.338
   30        0.014   0.021   1.311   1.347
   31       -0.028  -0.043  -2.613  -2.683
   32        0.014   0.021   1.306   1.341
   33        0.014   0.021   1.309   1.344
   34       -0.028  -0.043  -2.613  -2.683
   35        0.014   0.021   1.306   1.341
   36        0.014   0.021   1.309   1.344
   37       -0.028  -0.043  -2.613  -2.683
   38        0.014   0.021   1.306   1.341
   39        0.014   0.021   1.309   1.344
   40       -0.028  -0.043  -2.613  -2.683
   41        0.014   0.021   1.303   1.339
   42        0.014   0.021   1.311   1.347
   43       -0.028  -0.043  -2.613  -2.683
   44        0.014   0.021   1.295   1.330
   45        0.014   0.021   1.319   1.355
   46       -0.028  -0.043  -2.613  -2.683
   47        0.014   0.021   1.274   1.309
   48        0.014   0.022   1.339   1.375
   49       -0.028  -0.042  -2.612  -2.682
   50        0.013   0.020   1.240   1.274
   51        0.015   0.022   1.372   1.409
   52       -0.028  -0.042  -2.610  -2.680
   53        0.013   0.020   1.199   1.231
   54        0.015   0.023   1.411   1.450
   55       -0.028  -0.042  -2.608  -2.678
   56        0.012   0.019   1.163   1.195
   57        0.015   0.023   1.444   1.483
   58       -0.028  -0.042  -2.607  -2.677
   59        0.012   0.019   1.145   1.175
   60        0.016   0.024   1.460   1.499
[...]
   82       -0.000  -0.000   0.000   0.000
   83       -0.000  -0.000   0.000   0.000
   84       -0.000  -0.000   0.000   0.000
   85       -0.000  -0.000   0.000   0.000
   86       -0.000  -0.000   0.000   0.000
   87       -0.000  -0.000   0.000   0.000
   88       -0.000  -0.000   0.000  -0.000
   89       -0.000  -0.000   0.000  -0.000
   90       -0.000  -0.000   0.000  -0.000
   91        0.000   0.000  -0.000  -0.000
   92        0.000   0.000  -0.000  -0.000
   93        0.000   0.000  -0.000  -0.000
   94        0.000   0.000  -0.000  -0.000
   95        0.000   0.000  -0.000  -0.000
   96        0.000   0.000  -0.000  -0.000
tot         -0.000   0.000  -0.002  -0.002